InboundTrucks  = 60;
OutboundTrucks = 30;
ReleaseTime    = [98,165,120,104,50,50,173,101,14,109,113,115,9,135,83,51,60,126,161,156,164,133,49,102,83,121,32,108,119,168,9,133,63,65,114,120,126,69,11,45,160,25,9,97,66,2,45,54,51,31,91,32,56,176,167,50,111,60,78,166];
UnloadTime     = [6,4,5,5,6,8,4,6,1,10,4,7,7,9,10,6,6,7,3,4,9,6,6,2,4,10,6,1,2,9,7,10,6,2,5,3,5,10,8,5,3,9,3,9,8,3,8,1,1,3,6,8,8,10,3,1,8,2,4,10];
LoadTime       = [3,1,1,2,8,7,1,6,4,9,2,4,7,8,1,9,5,7,8,4,4,8,10,3,2,4,8,8,10,4];
TransferTime   = [| 1,5,2,1,1,4,1,3,5,5,5,4,4,5,4,3,3,2,2,2,1,5,5,5,5,4,4,4,5,5 | 1,3,2,3,4,5,1,5,3,2,3,5,4,5,4,2,1,5,5,2,4,3,3,2,5,5,2,2,1,3 | 3,2,2,3,2,2,4,1,1,3,3,3,2,2,2,4,1,1,1,3,4,3,2,5,1,4,1,5,4,3 | 2,3,3,5,4,3,2,2,3,2,4,3,4,2,3,2,1,5,4,2,2,5,1,3,3,2,1,5,5,2 | 3,3,2,3,5,3,2,4,5,4,3,4,4,5,3,5,5,2,1,1,3,2,2,2,1,2,4,5,3,4 | 2,1,1,1,4,1,1,3,4,3,5,3,2,3,1,3,2,1,2,3,5,4,5,2,5,3,2,2,3,4 | 1,5,2,1,1,2,5,2,4,4,5,5,5,3,3,3,4,3,2,1,3,3,5,2,3,4,1,4,1,5 | 5,5,4,4,4,2,2,2,4,3,2,5,3,1,5,1,3,4,1,3,2,2,2,5,1,1,3,5,1,1 | 1,5,3,4,3,4,5,2,5,1,4,3,1,1,5,4,2,4,2,1,5,2,1,5,3,4,2,1,3,4 | 5,2,5,3,3,2,3,1,2,3,5,1,2,5,3,5,5,4,2,1,3,2,1,4,5,4,4,1,4,5 | 3,2,1,3,1,1,1,5,4,5,2,3,4,3,3,5,4,4,5,5,1,5,4,1,4,1,2,3,2,3 | 4,4,4,3,5,3,2,4,1,3,2,4,5,1,5,1,3,5,4,2,1,1,2,3,4,5,2,4,1,2 | 2,5,3,2,5,5,2,5,5,4,4,2,5,4,4,4,2,1,3,4,5,4,1,5,5,4,4,3,1,4 | 1,1,5,5,5,4,5,5,2,1,4,5,5,4,2,4,1,4,1,4,1,2,4,3,5,5,3,3,2,3 | 5,2,3,2,2,3,2,4,4,2,1,5,2,5,4,1,4,3,2,4,1,1,3,3,3,2,5,2,2,3 | 5,5,2,5,3,1,3,5,2,1,2,5,4,1,3,4,1,4,5,4,5,1,1,4,5,3,5,5,2,5 | 4,3,3,1,5,3,5,3,2,4,3,2,5,5,1,1,1,1,1,5,1,5,4,3,2,3,2,4,1,1 | 2,2,2,4,2,5,4,2,1,3,1,2,2,4,5,2,2,3,1,1,1,3,5,1,5,4,4,4,2,5 | 2,4,5,5,3,1,4,3,3,1,1,2,1,5,3,4,1,3,5,1,4,4,1,4,1,1,2,1,2,1 | 4,3,3,4,4,3,3,4,4,5,1,4,5,4,3,4,4,4,5,2,3,1,5,3,2,5,5,3,1,1 | 3,3,5,5,2,5,5,5,3,1,4,3,1,3,2,5,5,3,5,5,1,1,1,5,2,5,5,2,2,3 | 1,5,4,4,4,5,1,5,2,3,3,1,3,3,5,1,3,2,4,2,4,3,2,3,1,2,1,5,3,5 | 4,4,2,4,3,3,5,5,3,3,2,3,1,3,2,2,5,1,3,4,5,1,2,1,4,5,4,4,4,2 | 5,2,4,2,4,5,3,5,4,3,4,2,1,1,5,3,4,3,4,1,5,5,2,4,1,5,5,3,3,1 | 4,2,5,3,1,4,4,2,2,3,3,3,1,3,1,2,3,4,4,5,5,5,2,4,5,5,3,2,2,3 | 4,1,1,3,3,4,4,1,5,2,4,1,5,2,3,3,1,2,3,2,3,5,1,5,4,3,5,5,3,2 | 2,3,3,2,4,2,4,5,3,4,2,1,1,2,2,4,1,4,3,5,3,4,2,2,3,1,1,5,1,4 | 1,2,4,1,3,2,4,3,2,3,2,2,4,3,2,5,4,3,3,2,4,3,1,3,2,2,4,3,1,4 | 3,4,1,2,1,2,1,1,5,4,3,4,5,3,5,5,3,5,2,5,3,5,2,5,2,3,2,1,5,3 | 4,3,3,2,3,2,1,3,1,3,3,3,3,5,5,5,5,4,5,3,1,3,3,5,1,4,4,3,1,4 | 4,1,5,1,3,4,5,4,2,3,4,1,4,5,5,1,2,2,4,5,5,1,4,5,1,4,3,5,5,1 | 2,5,3,5,5,2,3,5,2,1,4,4,4,2,3,1,4,1,5,1,3,3,4,5,4,2,2,3,3,4 | 3,5,3,2,3,2,1,5,2,1,1,4,1,1,2,1,5,4,4,3,1,2,1,1,4,4,5,2,3,3 | 1,1,1,5,1,4,1,5,2,5,5,2,5,3,1,5,4,1,3,5,1,4,4,3,1,3,3,1,5,2 | 3,2,5,1,4,4,2,5,1,1,1,2,2,1,4,1,4,5,1,2,3,4,1,3,1,4,2,4,4,5 | 4,5,4,5,5,1,1,4,1,1,2,2,2,3,1,5,2,4,4,5,1,3,2,3,3,3,5,1,2,3 | 3,3,4,4,5,4,5,5,5,4,5,1,5,5,1,2,5,3,5,2,2,4,3,1,1,4,3,1,2,2 | 4,3,5,1,4,1,4,4,1,5,1,3,2,1,3,2,3,2,2,2,4,1,5,4,4,3,4,2,1,3 | 2,4,2,5,4,4,2,3,4,5,3,5,5,1,5,3,1,2,2,4,4,5,5,2,3,4,1,2,5,3 | 5,4,3,2,2,2,3,5,2,3,1,2,1,3,3,4,3,2,2,4,3,3,5,3,3,4,3,2,3,1 | 3,1,4,5,1,1,3,5,5,5,4,5,3,5,2,2,1,3,5,5,5,2,1,1,3,5,4,4,2,5 | 4,5,1,1,3,2,5,2,1,1,4,3,3,2,4,3,3,3,3,5,2,3,2,1,3,3,2,2,3,3 | 3,2,5,2,2,1,3,3,4,1,3,2,1,2,2,5,3,4,5,2,1,1,2,3,1,2,4,5,1,2 | 4,5,5,1,3,5,4,1,4,2,3,2,3,3,3,3,5,4,3,3,2,4,3,5,4,3,4,4,4,2 | 3,2,3,2,5,2,1,1,2,5,4,1,3,5,4,5,1,4,1,2,5,4,5,5,3,5,1,2,3,3 | 5,3,4,2,4,2,3,2,3,2,5,2,3,4,5,3,3,1,4,4,2,1,2,2,2,4,2,3,2,4 | 3,4,2,3,1,4,5,2,5,1,4,1,3,4,3,1,4,3,5,3,3,1,2,1,1,3,2,1,2,3 | 4,4,5,2,1,5,1,4,3,3,1,5,5,5,3,4,1,3,2,2,2,3,1,5,2,5,1,4,3,1 | 2,4,1,1,1,1,5,5,1,4,4,4,3,1,5,1,1,3,3,2,3,2,1,3,2,2,2,2,3,3 | 2,3,3,4,2,1,5,2,3,1,1,4,2,2,3,3,4,3,2,4,4,2,5,4,3,4,2,5,4,5 | 5,4,1,3,4,3,3,5,1,1,3,4,5,4,2,2,3,3,4,3,1,3,2,1,3,3,3,3,3,5 | 3,5,4,5,2,4,4,4,3,5,3,2,2,4,2,4,1,5,2,3,3,2,5,3,3,1,1,4,2,4 | 3,1,2,2,2,4,4,2,4,4,1,3,5,5,1,5,3,3,4,5,4,2,3,3,4,2,5,2,4,4 | 4,2,3,1,2,2,2,5,4,2,3,1,1,1,5,3,1,2,5,2,4,5,2,2,5,4,4,2,2,4 | 2,4,2,3,5,3,1,3,4,2,5,2,4,5,4,5,2,1,2,5,1,3,2,3,1,4,4,3,4,3 | 2,1,2,3,2,1,4,2,5,1,1,5,4,3,2,1,3,3,3,4,2,5,4,5,2,5,4,2,3,5 | 1,1,5,4,4,3,1,4,3,4,3,2,3,5,4,4,2,5,1,5,4,4,4,3,1,4,5,4,4,4 | 2,3,2,5,1,4,3,5,3,5,2,3,2,5,2,3,5,3,1,4,3,5,1,3,1,1,5,2,4,2 | 1,2,1,5,5,4,1,5,5,5,1,1,5,5,1,1,1,1,2,4,2,4,4,3,5,2,4,1,2,4 | 4,3,3,3,2,3,2,5,4,1,5,2,2,2,5,4,2,2,5,4,1,2,4,2,1,4,1,3,5,1 |];
